p cnf 489 1039
c max 1 2 3 4 5 6 7 8 9 10 11 12 13 14 15 16 17 18 19 20 21 22 23 24 25 26 27 28 29 30 31 32 33 34 35 36 37 38 39 40 41 42 43 44 45 46 47 48 49 50 51 52 53 54 0
c ind 55 56 57 58 59 60 61 62 63 64 65 66 67 68 69 70 71 72 73 74 75 76 77 78 79 80 81 82 83 84 85 86 87 88 89 90 91 92 93 94 95 96 97 98 99 100 101 102 103 104 105 106 107 108 109 110 111 112 113 114 115 116 117 118 119 120 121 122 123 124 125 126 127 128 129 130 131 132 133 134 135 136 137 138 139 140 141 142 143 144 145 146 147 148 149 150 151 152 153 154 155 156 157 158 159 160 161 162 163 164 165 166 167 168 169 170 171 172 173 174 175 176 177 178 179 180 181 182 183 184 185 186 187 188 189 190 191 192 193 194 195 196 197 198 199 200 201 202 203 204 205 206 207 208 209 210 211 212 213 214 215 216 217 218 219 220 221 222 223 224 225 226 227 228 229 230 231 232 233 234 235 236 237 238 239 240 241 242 243 244 245 246 247 248 249 250 251 252 253 254 255 256 257 258 259 260 261 262 263 264 265 266 267 268 269 270 271 272 273 274 275 276 277 278 279 280 281 282 283 284 285 286 287 288 289 290 291 292 293 294 295 296 297 298 299 300 301 302 303 304 305 306 307 308 309 310 311 312 313 314 315 316 317 318 319 320 321 322 323 324 325 326 327 328 329 330 331 332 333 334 335 336 337 338 339 340 341 342 343 344 345 346 347 348 349 350 351 352 353 354 355 356 357 358 359 360 361 362 363 364 365 366 367 368 369 370 371 372 373 374 375 376 377 378 379 380 381 382 383 384 385 386 387 388 389 390 391 392 393 394 395 396 397 398 399 400 401 402 403 404 405 406 407 408 409 410 411 412 413 414 415 416 417 418 419 420 421 422 423 424 425 426 427 428 429 430 431 432 433 434 435 436 437 438 439 440 441 442 443 444 445 446 447 448 449 450 451 452 453 454 455 456 457 458 459 460 461 462 463 464 465 466 467 468 469 470 471 472 473 474 475 476 477 478 479 480 481 482 483 484 485 486 487 488 489 0
55 1 0
-55 -1 0
56 2 0
-56 -2 0
57 3 0
-57 -3 0
58 4 0
-58 -4 0
59 5 0
-59 -5 0
60 6 0
-60 -6 0
61 7 0
-61 -7 0
62 8 0
-62 -8 0
63 9 0
-63 -9 0
64 10 0
-64 -10 0
65 11 0
-65 -11 0
66 12 0
-66 -12 0
67 26 0
-67 -26 0
68 28 0
-68 -28 0
69 42 0
-69 -42 0
70 43 0
-70 -43 0
71 44 0
-71 -44 0
72 52 0
-72 -52 0
73 45 0
-73 -45 0
74 53 0
-74 -53 0
75 46 0
-75 -46 0
76 54 0
-76 -54 0
77 47 0
-77 -47 0
78 40 0
-78 -40 0
79 48 0
-79 -48 0
80 41 0
-80 -41 0
81 49 0
-81 -49 0
82 50 0
-82 -50 0
83 51 0
-83 -51 0
84 55 0
-84 -55 0
85 58 0
-85 -58 0
86 59 0
-86 -59 0
87 60 0
-87 -60 0
88 61 0
-88 -61 0
89 62 0
-89 -62 0
90 63 0
-90 -63 0
91 64 0
-91 -64 0
92 65 0
-92 -65 0
93 66 0
-93 -66 0
94 67 0
-94 -67 0
95 68 0
-95 -68 0
96 69 0
-96 -69 0
97 70 0
-97 -70 0
98 71 0
-98 -71 0
99 72 0
-99 -72 0
100 73 0
-100 -73 0
101 74 0
-101 -74 0
102 75 0
-102 -75 0
103 76 0
-103 -76 0
104 77 0
-104 -77 0
105 78 0
-105 -78 0
106 79 0
-106 -79 0
107 80 0
-107 -80 0
108 81 0
-108 -81 0
109 82 0
-109 -82 0
110 83 0
-110 -83 0
111 85 0
-111 -85 0
112 85 0
-112 -85 0
113 85 0
-113 -85 0
114 85 0
-114 -85 0
115 85 0
-115 -85 0
116 85 0
-116 -85 0
117 85 0
-117 -85 0
118 89 0
-118 -89 0
119 90 0
-119 -90 0
120 91 0
-120 -91 0
121 92 0
-121 -92 0
122 93 0
-122 -93 0
-434 93 0
-434 92 0
434 -93 -92 0
-123 434 0
-123 91 0
123 -434 -91 0
-124 107 0
-124 111 0
124 -107 -111 0
-125 97 0
-125 112 0
125 -97 -112 0
-126 100 0
-126 113 0
126 -100 -113 0
-127 110 0
-127 114 0
127 -110 -114 0
-128 99 0
-128 115 0
128 -99 -115 0
-129 101 0
-129 116 0
129 -101 -116 0
-130 103 0
-130 117 0
130 -103 -117 0
-131 120 0
-131 57 0
131 -120 -57 0
-132 120 0
-132 57 0
132 -120 -57 0
-133 120 0
-133 57 0
133 -120 -57 0
-134 120 0
-134 57 0
134 -120 -57 0
-435 122 0
-435 119 0
435 -122 -119 0
-436 435 0
-436 118 0
436 -435 -118 0
-135 436 0
-135 57 0
135 -436 -57 0
-437 122 0
-437 90 0
437 -122 -90 0
-438 437 0
-438 118 0
438 -437 -118 0
-136 438 0
-136 57 0
136 -438 -57 0
-439 122 0
-439 119 0
439 -122 -119 0
-440 439 0
-440 89 0
440 -439 -89 0
-137 440 0
-137 57 0
137 -440 -57 0
-441 122 0
-441 90 0
441 -122 -90 0
-442 441 0
-442 89 0
442 -441 -89 0
-138 442 0
-138 57 0
138 -442 -57 0
443 -37 0
443 -136 0
-443 37 136 0
139 -443 0
139 -132 0
-139 443 132 0
444 -138 0
444 -39 0
-444 138 39 0
140 -444 0
140 -134 0
-140 444 134 0
141 139 0
-141 -139 0
142 140 0
-142 -140 0
143 141 0
-143 -141 0
144 142 0
-144 -142 0
145 143 0
-145 -143 0
146 144 0
-146 -144 0
147 145 0
-147 -145 0
148 146 0
-148 -146 0
149 147 0
-149 -147 0
150 148 0
-150 -148 0
151 123 0
-151 -123 0
152 124 0
-152 -124 0
153 124 0
-153 -124 0
154 125 0
-154 -125 0
155 125 0
-155 -125 0
156 126 0
-156 -126 0
157 126 0
-157 -126 0
158 127 0
-158 -127 0
159 128 0
-159 -128 0
160 129 0
-160 -129 0
161 130 0
-161 -130 0
162 151 0
-162 -151 0
163 152 0
-163 -152 0
164 153 0
-164 -153 0
165 154 0
-165 -154 0
166 155 0
-166 -155 0
-167 34 0
-167 164 0
167 -34 -164 0
-168 32 0
-168 166 0
168 -32 -166 0
-169 22 0
-169 149 0
169 -22 -149 0
-170 24 0
-170 150 0
170 -24 -150 0
171 156 0
-171 -156 0
172 157 0
-172 -157 0
173 160 0
-173 -160 0
174 161 0
-174 -161 0
175 167 0
-175 -167 0
176 168 0
-176 -168 0
177 162 0
-177 -162 0
178 158 0
-178 -158 0
179 159 0
-179 -159 0
180 163 0
-180 -163 0
181 165 0
-181 -165 0
182 171 0
-182 -171 0
-183 30 0
-183 172 0
183 -30 -172 0
-184 17 0
-184 178 0
184 -17 -178 0
-185 18 0
-185 179 0
185 -18 -179 0
-186 19 0
-186 173 0
186 -19 -173 0
-187 20 0
-187 174 0
187 -20 -174 0
188 169 0
-188 -169 0
189 169 0
-189 -169 0
190 170 0
-190 -170 0
191 170 0
-191 -170 0
192 177 0
-192 -177 0
193 189 0
-193 -189 0
194 191 0
-194 -191 0
195 180 0
-195 -180 0
196 193 0
-196 -193 0
197 181 0
-197 -181 0
198 194 0
-198 -194 0
199 182 0
-199 -182 0
200 183 0
-200 -183 0
201 196 0
-201 -196 0
202 198 0
-202 -198 0
203 195 0
-203 -195 0
204 197 0
-204 -197 0
205 199 0
-205 -199 0
206 201 0
-206 -201 0
207 202 0
-207 -202 0
208 206 0
-208 -206 0
209 207 0
-209 -207 0
210 208 0
-210 -208 0
211 210 0
-211 -210 0
-212 27 0
-212 192 0
212 -27 -192 0
-213 105 0
-213 209 0
213 -105 -209 0
-214 98 0
-214 211 0
214 -98 -211 0
215 207 0
215 57 0
-215 -207 -57 0
216 210 0
216 57 0
-216 -210 -57 0
217 214 0
-217 -214 0
218 214 0
-218 -214 0
219 217 0
-219 -217 0
220 218 0
-220 -218 0
221 219 0
-221 -219 0
222 221 0
-222 -221 0
223 213 0
-223 -213 0
224 213 0
-224 -213 0
225 223 0
-225 -223 0
-226 109 0
-226 215 0
226 -109 -215 0
-227 106 0
-227 216 0
227 -106 -216 0
-228 31 0
-228 220 0
228 -31 -220 0
-445 222 0
-445 90 0
445 -222 -90 0
-229 445 0
-229 118 0
229 -445 -118 0
-446 229 0
-446 122 0
446 -229 -122 0
-230 446 0
-230 197 0
230 -446 -197 0
231 224 0
-231 -224 0
232 222 0
-232 -222 0
233 227 0
-233 -227 0
234 227 0
-234 -227 0
235 225 0
-235 -225 0
236 233 0
-236 -233 0
237 234 0
-237 -234 0
238 235 0
-238 -235 0
239 236 0
-239 -236 0
240 238 0
-240 -238 0
241 226 0
-241 -226 0
242 228 0
-242 -228 0
243 226 0
-243 -226 0
244 239 0
-244 -239 0
-245 35 0
-245 231 0
245 -35 -231 0
-246 14 0
-246 237 0
246 -14 -237 0
-447 122 0
-447 238 0
447 -122 -238 0
-448 447 0
-448 90 0
448 -447 -90 0
-247 448 0
-247 89 0
247 -448 -89 0
-248 244 0
-248 56 0
248 -244 -56 0
-249 86 0
-249 244 0
249 -86 -244 0
-250 204 0
-250 232 0
250 -204 -232 0
-251 197 0
-251 232 0
251 -197 -232 0
-252 232 0
-252 208 0
252 -232 -208 0
253 241 0
-253 -241 0
254 -252 0
254 -250 0
-254 252 250 0
255 240 0
-255 -240 0
256 243 0
-256 -243 0
257 244 0
-257 -244 0
258 253 0
-258 -253 0
259 255 0
-259 -255 0
260 245 0
-260 -245 0
261 258 0
-261 -258 0
262 261 0
-262 -261 0
263 251 0
-263 -251 0
264 263 0
-264 -263 0
265 259 0
-265 -259 0
266 264 0
-266 -264 0
267 246 0
-267 -246 0
268 254 0
-268 -254 0
-269 16 0
-269 256 0
269 -16 -256 0
270 265 0
-270 -265 0
-271 261 0
-271 56 0
271 -261 -56 0
-272 261 0
-272 84 0
272 -261 -84 0
-273 261 0
-273 56 0
273 -261 -56 0
-274 261 0
-274 56 0
274 -261 -56 0
-449 262 0
-449 38 0
449 -262 -38 0
-275 449 0
-275 56 0
275 -449 -56 0
276 266 0
-276 -266 0
-450 257 0
-450 36 0
450 -257 -36 0
-277 450 0
-277 56 0
277 -450 -56 0
278 268 0
-278 -268 0
451 -137 0
451 -275 0
-451 137 275 0
279 -451 0
279 -133 0
-279 451 133 0
280 274 0
-280 -274 0
281 270 0
-281 -270 0
282 276 0
-282 -276 0
283 278 0
-283 -278 0
284 280 0
-284 -280 0
285 269 0
-285 -269 0
286 279 0
-286 -279 0
287 286 0
-287 -286 0
288 287 0
-288 -287 0
289 288 0
-289 -288 0
290 289 0
-290 -289 0
-291 23 0
-291 290 0
291 -23 -290 0
292 291 0
-292 -291 0
293 291 0
-293 -291 0
294 293 0
-294 -293 0
295 294 0
-295 -294 0
296 295 0
-296 -295 0
297 296 0
-297 -296 0
298 297 0
-298 -297 0
299 298 0
-299 -298 0
300 299 0
-300 -299 0
-301 96 0
-301 300 0
301 -96 -300 0
302 299 0
302 57 0
-302 -299 -57 0
303 301 0
-303 -301 0
304 301 0
-304 -301 0
305 303 0
-305 -303 0
306 304 0
-306 -304 0
-307 108 0
-307 302 0
307 -108 -302 0
-308 33 0
-308 306 0
308 -33 -306 0
309 305 0
-309 -305 0
310 309 0
-310 -309 0
311 308 0
-311 -308 0
312 310 0
-312 -310 0
313 307 0
-313 -307 0
314 307 0
-314 -307 0
315 313 0
-315 -313 0
-316 315 0
-316 56 0
316 -315 -56 0
-317 87 0
-317 315 0
317 -87 -315 0
-452 262 0
-452 315 0
452 -262 -315 0
-318 452 0
-318 56 0
318 -452 -56 0
-453 310 0
-453 119 0
453 -310 -119 0
-319 453 0
-319 89 0
319 -453 -89 0
-454 120 0
-454 238 0
454 -120 -238 0
-455 454 0
-455 195 0
455 -454 -195 0
-320 455 0
-320 310 0
320 -455 -310 0
-456 319 0
-456 122 0
456 -319 -122 0
-321 456 0
-321 195 0
321 -456 -195 0
-322 203 0
-322 312 0
322 -203 -312 0
-323 195 0
-323 312 0
323 -195 -312 0
-324 312 0
-324 298 0
324 -312 -298 0
325 314 0
-325 -314 0
326 -324 0
326 -322 0
-326 324 322 0
327 315 0
-327 -315 0
328 327 0
-328 -327 0
329 318 0
-329 -318 0
330 329 0
-330 -329 0
331 323 0
-331 -323 0
332 331 0
-332 -331 0
333 332 0
-333 -332 0
334 326 0
-334 -326 0
335 333 0
-335 -333 0
336 334 0
-336 -334 0
337 335 0
-337 -335 0
338 336 0
-338 -336 0
-339 15 0
-339 325 0
339 -15 -325 0
340 315 0
-340 -315 0
-457 262 0
-457 340 0
457 -262 -340 0
-341 457 0
-341 257 0
341 -457 -257 0
-458 277 0
-458 262 0
458 -277 -262 0
-342 458 0
-342 340 0
342 -458 -340 0
-459 262 0
-459 340 0
459 -262 -340 0
-460 459 0
-460 244 0
460 -459 -244 0
-343 460 0
-343 56 0
343 -460 -56 0
-461 262 0
-461 340 0
461 -262 -340 0
-462 461 0
-462 244 0
462 -461 -244 0
-344 462 0
-344 56 0
344 -462 -56 0
463 -342 0
463 -135 0
-463 342 135 0
345 -463 0
345 -131 0
-345 463 131 0
346 339 0
-346 -339 0
347 344 0
-347 -344 0
348 345 0
-348 -345 0
349 347 0
-349 -347 0
350 348 0
-350 -348 0
351 350 0
-351 -350 0
352 351 0
-352 -351 0
353 352 0
-353 -352 0
-354 21 0
-354 353 0
354 -21 -353 0
355 354 0
-355 -354 0
356 354 0
-356 -354 0
357 356 0
-357 -356 0
358 357 0
-358 -357 0
359 358 0
-359 -358 0
360 359 0
-360 -359 0
361 360 0
-361 -360 0
362 361 0
-362 -361 0
363 362 0
363 57 0
-363 -362 -57 0
364 362 0
-364 -362 0
-365 102 0
-365 364 0
365 -102 -364 0
-366 104 0
-366 363 0
366 -104 -363 0
367 365 0
-367 -365 0
368 367 0
-368 -367 0
369 366 0
-369 -366 0
370 369 0
-370 -369 0
371 366 0
-371 -366 0
-372 29 0
-372 368 0
372 -29 -368 0
-373 13 0
-373 370 0
373 -13 -370 0
374 365 0
-374 -365 0
375 373 0
-375 -373 0
376 372 0
-376 -372 0
377 371 0
-377 -371 0
378 374 0
-378 -374 0
379 378 0
-379 -378 0
-380 377 0
-380 56 0
380 -377 -56 0
-381 88 0
-381 377 0
381 -88 -377 0
-464 257 0
-464 377 0
464 -257 -377 0
-382 464 0
-382 56 0
382 -464 -56 0
-465 382 0
-465 262 0
465 -382 -262 0
-383 465 0
-383 340 0
383 -465 -340 0
384 379 0
-384 -379 0
385 377 0
-385 -377 0
386 377 0
-386 -377 0
387 384 0
-387 -384 0
388 383 0
-388 -383 0
-466 262 0
-466 340 0
466 -262 -340 0
-389 466 0
-389 386 0
389 -466 -386 0
-467 262 0
-467 257 0
467 -262 -257 0
-390 467 0
-390 386 0
390 -467 -386 0
-468 257 0
-468 386 0
468 -257 -386 0
-391 468 0
-391 84 0
391 -468 -84 0
-469 384 0
-469 119 0
469 -384 -119 0
-392 469 0
-392 118 0
392 -469 -118 0
-470 341 0
-470 199 0
470 -341 -199 0
-471 470 0
-471 384 0
471 -470 -384 0
-393 471 0
-393 88 0
393 -471 -88 0
-472 197 0
-472 222 0
472 -197 -222 0
-473 472 0
-473 199 0
473 -472 -199 0
-394 473 0
-394 384 0
394 -473 -384 0
-474 389 0
-474 197 0
474 -389 -197 0
-475 474 0
-475 222 0
475 -474 -222 0
-395 475 0
-395 86 0
395 -475 -86 0
-476 390 0
-476 195 0
476 -390 -195 0
-477 476 0
-477 310 0
477 -476 -310 0
-396 477 0
-396 87 0
396 -477 -87 0
-478 391 0
-478 238 0
478 -391 -238 0
-397 478 0
-397 340 0
397 -478 -340 0
-479 392 0
-479 122 0
479 -392 -122 0
-398 479 0
-398 199 0
398 -479 -199 0
-399 320 0
-399 394 0
399 -320 -394 0
-400 205 0
-400 387 0
400 -205 -387 0
-401 199 0
-401 387 0
401 -199 -387 0
-402 387 0
-402 361 0
402 -387 -361 0
403 385 0
-403 -385 0
404 401 0
-404 -401 0
480 -393 0
480 -381 0
-480 393 381 0
405 -480 0
405 -380 0
-405 480 380 0
481 -395 0
481 -249 0
-481 395 249 0
406 -481 0
406 -248 0
-406 481 248 0
482 -396 0
482 -317 0
-482 396 317 0
407 -482 0
407 -316 0
-407 482 316 0
483 -397 0
483 -272 0
-483 397 272 0
408 -483 0
408 -271 0
-408 483 271 0
484 -321 0
484 -398 0
-484 321 398 0
409 -484 0
409 -121 0
-409 484 121 0
410 -402 0
410 -400 0
-410 402 400 0
485 -409 0
485 -399 0
-485 409 399 0
486 -485 0
486 -247 0
-486 485 247 0
411 -486 0
411 -230 0
-411 486 230 0
412 408 0
-412 -408 0
413 410 0
-413 -410 0
414 404 0
-414 -404 0
415 406 0
-415 -406 0
416 388 0
-416 -388 0
417 405 0
-417 -405 0
418 412 0
-418 -412 0
419 411 0
-419 -411 0
420 414 0
-420 -414 0
421 407 0
-421 -407 0
422 415 0
-422 -415 0
423 413 0
-423 -413 0
424 421 0
-424 -421 0
425 420 0
-425 -420 0
426 425 0
-426 -425 0
427 423 0
-427 -423 0
428 419 0
-428 -419 0
429 417 0
-429 -417 0
430 428 0
-430 -428 0
431 430 0
-431 -430 0
432 431 0
-432 -431 0
-433 25 0
-433 432 0
433 -25 -432 0
-487 433 212 0
-487 -433 -212 0
487 -433 212 0
487 433 -212 0
487 0
-488 433 212 0
-488 -433 -212 0
488 -433 212 0
488 433 -212 0
488 0
-489 433 212 0
-489 -433 -212 0
489 -433 212 0
489 433 -212 0
489 0
